
Gurobi 7.0.2 (linux64, Python) logging started Wed May 10 17:31:54 2017


Gurobi 7.0.2 (linux64, Python) logging started Fri May 12 19:16:22 2017


Gurobi 7.0.2 (linux64, Python) logging started Sun May 14 13:21:45 2017


Gurobi 7.0.2 (linux64, Python) logging started Sun May 14 20:09:06 2017


Gurobi 7.0.2 (linux64, Python) logging started Sun May 14 23:41:44 2017


Gurobi 7.0.2 (linux64, Python) logging started Mon May 15 03:08:47 2017


Gurobi 7.0.2 (linux64, Python) logging started Mon May 15 06:09:32 2017


Gurobi 7.0.2 (linux64, Python) logging started Mon May 15 08:36:23 2017


Gurobi 7.0.2 (linux64, Python) logging started Fri Jun  8 14:29:37 2018


Gurobi 7.0.2 (linux64, Python) logging started Sun Jun 10 13:43:17 2018


Gurobi 7.0.2 (linux64, Python) logging started Sun Jun 10 20:44:31 2018


Gurobi 7.0.2 (linux64, Python) logging started Mon Jun 11 00:08:44 2018


Gurobi 7.0.2 (linux64, Python) logging started Mon Jun 11 03:01:36 2018


Gurobi 7.0.2 (linux64, Python) logging started Mon Jun 11 05:07:53 2018


Gurobi 7.0.2 (linux64, Python) logging started Mon Jun 11 07:07:23 2018

